%chk=gauss.chk
%nprocs=24
%mem=6GB
#p opt b3lyp/6-31g(d,p)

This is test

0 1
 C                  1.40279200    0.95174600    0.24047500
 C                  0.21580800    1.71924800   -0.34929100
 C                 -1.11153800    1.15253500    0.16696300
 C                 -1.17751300   -0.35040100    0.01621400
 C                 -0.05153100   -1.11247600   -0.07441400
 C                  1.29278700   -0.55857800    0.01771900
 O                  2.29948600   -1.25828800   -0.05126400
 N                 -2.43850200   -0.88824700    0.05576900
 H                  2.35680100    1.28335300   -0.17828800
 H                  1.45629400    1.12201500    1.32585500
 H                  0.28312200    2.78579700   -0.10923300
 H                  0.23772300    1.63695900   -1.44286200
 H                 -1.95825800    1.61223400   -0.36014000
 H                 -1.24350600    1.40029800    1.23005100
 H                 -0.11947400   -2.19129900   -0.19197600
 H                 -3.21954600   -0.30722200   -0.20794900
 H                 -2.54436500   -1.87054600   -0.15172400

